NAME : LPS-n25-m43
COMMENT : (Lartu-Peter-Santi Plot, instance 8843 out of 39200. 25 customers.)
TYPE : CVRP
DIMENSION : 25
EDGE_WEIGHT_TYPE : EUC_2D
CAPACITY : 83
NODE_COORD_SECTION
 1 10 32
 2 19 91
 3 25 12
 4 79 16
 5 9 96
 6 63 28
 7 67 42
 8 77 88
 9 90 60
 10 34 23
 11 61 14
 12 95 89
 13 3 24
 14 52 10
 15 98 88
 16 96 84
 17 2 92
 18 53 85
 19 16 75
 20 63 84
 21 81 52
 22 93 47
 23 74 74
 24 33 39
 25 33 18
DEMAND_SECTION
1 0
2 30
3 72
4 48
5 48
6 8
7 66
8 45
9 39
10 75
11 66
12 36
13 63
14 67
15 23
16 6
17 56
18 82
19 13
20 75
21 42
22 66
23 78
24 60
25 3
DEPOT_SECTION
 1
 -1
EOF
